
# PYTHONPATH must include directory above plugin directory.
#     Define either externally or here, then import plugin.
sys.path.insert(0, './..')
import einhf

molecule {
O
H 1 R
H 1 R 2 A

R = .9
A = 104.5

}

set {
  basis sto-3g
}

set GUESS CORE
set DIIS FALSE
set SCF_INITIAL_ACCELERATOR NONE
set PRINT 1

energy('einhf')

einhf.exampleFN()
