
# PYTHONPATH must include directory above plugin directory.
#     Define either externally or here, then import plugin.
sys.path.insert(0, './..')
import einhf

memory 12 GB

molecule water {
  O
  H 1 1.1
  H 1 1.1 2 104.5
}

set basis cc-pVTZ

set GUESS CORE
set DIIS TRUE
set SCF_INITIAL_ACCELERATOR NONE
set PRINT 1
set SCF_TYPE PK
set COMPUTE GPU
set MP2_TYPE CONV

set reference uhf

E1 = energy("mp2")

E2 = energy("einmp2")

assert(abs(E2 - E1) < 1e-6)

