
# PYTHONPATH must include directory above plugin directory.
#     Define either externally or here, then import plugin.
sys.path.insert(0, './..')
import einhf

memory 12 GB

molecule water {
  O
  H 1 1.1
  H 1 1.1 2 104.5
}

set basis def2-tzvpd

set GUESS CORE
set DIIS TRUE
set SCF_INITIAL_ACCELERATOR NONE
set PRINT 1
set SCF_TYPE PK
set COMPUTE GPU
set MP2_TYPE CONV

set reference rhf

psi4.core.timer_on("Psi4 RHF-MP2")
E1 = energy("mp2")
psi4.core.timer_off("Psi4 RHF-MP2")

E2 = energy("einmp2")

assert(abs(E2 - E1) < 1e-6)

